\ Model Ore Mixing Problem
\ LP format - for model browsing. Use MPS format to capture full model detail.
Minimize
  271.0027100271003 a_max_00 + 1510.574018126887 a_max_01
   + 2.9411764705882347e+06 a_max_10 + 2.1739130434782612e+06 a_max_11
   + 344827.5862068965 a_max_20 + 434782.6086956522 a_max_21
   + 333333.3333333334 a_max_30 + 232558.1395348837 a_max_31
   + 131578.947368421 a_max_40 + 106382.9787234043 a_max_41
   + 1.1111111111111129e+06 a_max_50 + 70921.98581560282 a_max_51
   + 1234.567901234568 a_min_00 + 260.5523710265763 a_min_01
   + 862068.9655172414 a_min_10 + 961538.4615384615 a_min_11
   + 476190.4761904762 a_min_20 + 370370.3703703703 a_min_21
   + 500000 a_min_30 + 1.4285714285714284e+06 a_min_31
   + 416666.6666666667 a_min_40 + 1.6666666666666667e+06 a_min_41
   + 70921.98581560282 a_min_50 + 1.1111111111111129e+06 a_min_51
   + 0.1234567901234568 b_min_00 + 0.1510574018126887 b_min_01
   + 2.941176470588235 b_min_10 + 2.173913043478261 b_min_11
   + 4.761904761904762 b_min_20 + 4.347826086956522 b_min_21 + 5 b_min_30
   + 14.28571428571428 b_min_31 + 4.166666666666667 b_min_40
   + 16.66666666666667 b_min_41 + 11.11111111111113 b_min_50
   + 11.11111111111113 b_min_51 + 0.1234567901234568 b_max_00
   + 0.1510574018126887 b_max_01 + 2.941176470588235 b_max_10
   + 2.173913043478261 b_max_11 + 4.761904761904762 b_max_20
   + 4.347826086956522 b_max_21 + 5 b_max_30 + 14.28571428571428 b_max_31
   + 4.166666666666667 b_max_40 + 16.66666666666667 b_max_41
   + 11.11111111111113 b_max_50 + 11.11111111111113 b_max_51
Subject To
 input_weight_constr_0: y_00 + y_01 + y_02 + y_03 + y_04 + y_05 <= 83.6
 input_weight_constr_1: y_10 + y_11 + y_12 + y_13 + y_14 + y_15 <= 83.6
 capacity_constr_0: y_00 + y_10 <= 116.6
 weight_constr_00: x_00 + x_01 - y_00 <= 867.6
 weight_constr_01: x_00 + x_01 - y_10 <= 867.6
 capacity_constr_1: y_01 + y_11 <= 265.9
 weight_constr_10: x_10 + x_11 - y_01 <= 691.1
 weight_constr_11: x_10 + x_11 - y_11 <= 691.1
 capacity_constr_2: y_02 + y_12 <= 317.3
 weight_constr_20: x_20 + x_21 - y_02 <= 650.6
 weight_constr_21: x_20 + x_21 - y_12 <= 650.6
 capacity_constr_3: y_03 + y_13 <= 152.4
 weight_constr_30: x_30 + x_31 - y_03 <= 838.6
 weight_constr_31: x_30 + x_31 - y_13 <= 838.6
 capacity_constr_4: y_04 + y_14 <= 407.5
 weight_constr_40: x_40 + x_41 - y_04 <= 618.5
 weight_constr_41: x_40 + x_41 - y_14 <= 618.5
 capacity_constr_5: y_05 + y_15 <= 159
 weight_constr_50: x_50 + x_51 - y_05 <= 677.3
 weight_constr_51: x_50 + x_51 - y_15 <= 677.3
 demand_constr_0: x_00 + x_10 + x_20 + x_30 + x_40 + x_50 = 864.8
 min_quality_constr_00: 44.89 x_00 - 6.66 x_10 + 43.11 x_20 + 29.34 x_30
   + 37.36 x_40 - 12.58 x_50 + 864.8 a_min_00 >= -0
 max_quality_constr_00: - 0.11 x_00 - 51.66 x_10 - 1.89 x_20 - 15.66 x_30
   - 7.64 x_40 - 57.58 x_50 - 864.8 a_max_00 <= -0
 goal_quality_constr_00: 36.79 x_00 - 14.76 x_10 + 35.01 x_20 + 21.24 x_30
   + 29.26 x_40 - 20.68 x_50 + 864.8 b_min_00 - 864.8 b_max_00 = -0
 min_quality_constr_10: 1.14 x_00 + 0.43 x_10 + 0.26 x_20 + 0.01 x_30
   + 1.07 x_40 + 0.14 x_50 + 864.8 a_min_10 >= -0
 max_quality_constr_10: - 0.36 x_00 - 1.07 x_10 - 1.24 x_20 - 1.49 x_30
   - 0.43 x_40 - 1.36 x_50 - 864.8 a_max_10 <= -0
 goal_quality_constr_10: - 0.02 x_00 - 0.73 x_10 - 0.9 x_20 - 1.15 x_30
   - 0.09 x_40 - 1.02 x_50 + 864.8 b_min_10 - 864.8 b_max_10 = -0
 min_quality_constr_20: 0.86 x_00 + 6.3 x_10 + 0.3 x_20 + 2.98 x_30
   + 2.61 x_40 + 4.3 x_50 + 864.8 a_min_20 >= -0
 max_quality_constr_20: 0.36 x_00 + 5.8 x_10 - 0.2 x_20 + 2.48 x_30
   + 2.11 x_40 + 3.8 x_50 - 864.8 a_max_20 <= -0
 goal_quality_constr_20: 0.65 x_00 + 6.09 x_10 + 0.09 x_20 + 2.77 x_30
   + 2.4 x_40 + 4.09 x_50 + 864.8 b_min_20 - 864.8 b_max_20 = -0
 min_quality_constr_30: 5.67 x_00 + 1.68 x_10 + 1.74 x_20 + 1.79 x_30
   + 6.21 x_40 + 1.42 x_50 + 864.8 a_min_30 >= -0
 max_quality_constr_30: 5.17 x_00 + 1.18 x_10 + 1.24 x_20 + 1.29 x_30
   + 5.71 x_40 + 0.92 x_50 - 864.8 a_max_30 <= -0
 goal_quality_constr_30: 5.47 x_00 + 1.48 x_10 + 1.54 x_20 + 1.59 x_30
   + 6.01 x_40 + 1.22 x_50 + 864.8 b_min_30 - 864.8 b_max_30 = -0
 min_quality_constr_40: 0.03 x_00 + 0.09 x_10 + 0.42 x_20 + 0.91 x_30
   + 0.46 x_40 + 1.34 x_50 + 864.8 a_min_40 >= -0
 max_quality_constr_40: - 0.97 x_00 - 0.91 x_10 - 0.58 x_20 - 0.09 x_30
   - 0.54 x_40 + 0.34 x_50 - 864.8 a_max_40 <= -0
 goal_quality_constr_40: - 0.21 x_00 - 0.15 x_10 + 0.18 x_20 + 0.67 x_30
   + 0.22 x_40 + 1.1 x_50 + 864.8 b_min_40 - 864.8 b_max_40 = -0
 min_quality_constr_50: 3.26 x_00 + 2.7 x_10 + 1.93 x_20 + 2.62 x_30
   - 0.86 x_40 - 0.52 x_50 + 864.8 a_min_50 >= -0
 max_quality_constr_50: 1.76 x_00 + 1.2 x_10 + 0.43 x_20 + 1.12 x_30
   - 2.36 x_40 - 2.02 x_50 - 864.8 a_max_50 <= -0
 goal_quality_constr_50: 1.85 x_00 + 1.29 x_10 + 0.52 x_20 + 1.21 x_30
   - 2.27 x_40 - 1.93 x_50 + 864.8 b_min_50 - 864.8 b_max_50 = -0
 demand_constr_1: x_01 + x_11 + x_21 + x_31 + x_41 + x_51 = 725.2
 min_quality_constr_01: 44.89 x_01 - 6.66 x_11 + 43.11 x_21 + 29.34 x_31
   + 37.36 x_41 - 12.58 x_51 + 725.2 a_min_01 >= -0
 max_quality_constr_01: - 0.11 x_01 - 51.66 x_11 - 1.89 x_21 - 15.66 x_31
   - 7.64 x_41 - 57.58 x_51 - 725.2 a_max_01 <= -0
 goal_quality_constr_01: 6.51 x_01 - 45.04 x_11 + 4.73 x_21 - 9.04 x_31
   - 1.02 x_41 - 50.96 x_51 + 725.2 b_min_01 - 725.2 b_max_01 = -0
 min_quality_constr_11: 1.14 x_01 + 0.43 x_11 + 0.26 x_21 + 0.01 x_31
   + 1.07 x_41 + 0.14 x_51 + 725.2 a_min_11 >= -0
 max_quality_constr_11: - 0.36 x_01 - 1.07 x_11 - 1.24 x_21 - 1.49 x_31
   - 0.43 x_41 - 1.36 x_51 - 725.2 a_max_11 <= -0
 goal_quality_constr_11: 0.1 x_01 - 0.61 x_11 - 0.78 x_21 - 1.03 x_31
   + 0.03 x_41 - 0.9 x_51 + 725.2 b_min_11 - 725.2 b_max_11 = -0
 min_quality_constr_21: 0.86 x_01 + 6.3 x_11 + 0.3 x_21 + 2.98 x_31
   + 2.61 x_41 + 4.3 x_51 + 725.2 a_min_21 >= -0
 max_quality_constr_21: 0.36 x_01 + 5.8 x_11 - 0.2 x_21 + 2.48 x_31
   + 2.11 x_41 + 3.8 x_51 - 725.2 a_max_21 <= -0
 goal_quality_constr_21: 0.59 x_01 + 6.03 x_11 + 0.03 x_21 + 2.71 x_31
   + 2.34 x_41 + 4.03 x_51 + 725.2 b_min_21 - 725.2 b_max_21 = -0
 min_quality_constr_31: 5.67 x_01 + 1.68 x_11 + 1.74 x_21 + 1.79 x_31
   + 6.21 x_41 + 1.42 x_51 + 725.2 a_min_31 >= -0
 max_quality_constr_31: 5.17 x_01 + 1.18 x_11 + 1.24 x_21 + 1.29 x_31
   + 5.71 x_41 + 0.92 x_51 - 725.2 a_max_31 <= -0
 goal_quality_constr_31: 5.6 x_01 + 1.61 x_11 + 1.67 x_21 + 1.72 x_31
   + 6.14 x_41 + 1.35 x_51 + 725.2 b_min_31 - 725.2 b_max_31 = -0
 min_quality_constr_41: 0.03 x_01 + 0.09 x_11 + 0.42 x_21 + 0.91 x_31
   + 0.46 x_41 + 1.34 x_51 + 725.2 a_min_41 >= -0
 max_quality_constr_41: - 0.97 x_01 - 0.91 x_11 - 0.58 x_21 - 0.09 x_31
   - 0.54 x_41 + 0.34 x_51 - 725.2 a_max_41 <= -0
 goal_quality_constr_41: - 0.03 x_01 + 0.03 x_11 + 0.36 x_21 + 0.85 x_31
   + 0.4 x_41 + 1.28 x_51 + 725.2 b_min_41 - 725.2 b_max_41 = -0
 min_quality_constr_51: 3.26 x_01 + 2.7 x_11 + 1.93 x_21 + 2.62 x_31
   - 0.86 x_41 - 0.52 x_51 + 725.2 a_min_51 >= -0
 max_quality_constr_51: 1.76 x_01 + 1.2 x_11 + 0.43 x_21 + 1.12 x_31
   - 2.36 x_41 - 2.02 x_51 - 725.2 a_max_51 <= -0
 goal_quality_constr_51: 3.17 x_01 + 2.61 x_11 + 1.84 x_21 + 2.53 x_31
   - 0.95 x_41 - 0.61 x_51 + 725.2 b_min_51 - 725.2 b_max_51 = -0
Bounds
End
